; benchmark generated from python API
(set-info :status unknown)
(declare-fun cell_1_3 () Int)
(declare-fun cell_1_6 () Int)
(declare-fun cell_2_6 () Int)
(declare-fun cell_2_8 () Int)
(declare-fun cell_3_3 () Int)
(declare-fun cell_3_9 () Int)
(declare-fun cell_4_4 () Int)
(declare-fun cell_4_5 () Int)
(declare-fun cell_5_1 () Int)
(declare-fun cell_5_8 () Int)
(declare-fun cell_6_1 () Int)
(declare-fun cell_7_4 () Int)
(declare-fun cell_8_2 () Int)
(declare-fun cell_9_7 () Int)
(declare-fun cell_1_1 () Int)
(declare-fun cell_2_1 () Int)
(declare-fun cell_3_1 () Int)
(declare-fun cell_4_1 () Int)
(declare-fun cell_7_1 () Int)
(declare-fun cell_8_1 () Int)
(declare-fun cell_9_1 () Int)
(declare-fun cell_1_2 () Int)
(declare-fun cell_2_2 () Int)
(declare-fun cell_3_2 () Int)
(declare-fun cell_4_2 () Int)
(declare-fun cell_5_2 () Int)
(declare-fun cell_6_2 () Int)
(declare-fun cell_7_2 () Int)
(declare-fun cell_9_2 () Int)
(declare-fun cell_2_3 () Int)
(declare-fun cell_4_3 () Int)
(declare-fun cell_5_3 () Int)
(declare-fun cell_6_3 () Int)
(declare-fun cell_7_3 () Int)
(declare-fun cell_8_3 () Int)
(declare-fun cell_9_3 () Int)
(declare-fun cell_1_4 () Int)
(declare-fun cell_2_4 () Int)
(declare-fun cell_3_4 () Int)
(declare-fun cell_5_4 () Int)
(declare-fun cell_6_4 () Int)
(declare-fun cell_8_4 () Int)
(declare-fun cell_9_4 () Int)
(declare-fun cell_1_5 () Int)
(declare-fun cell_2_5 () Int)
(declare-fun cell_3_5 () Int)
(declare-fun cell_5_5 () Int)
(declare-fun cell_6_5 () Int)
(declare-fun cell_7_5 () Int)
(declare-fun cell_8_5 () Int)
(declare-fun cell_9_5 () Int)
(declare-fun cell_3_6 () Int)
(declare-fun cell_4_6 () Int)
(declare-fun cell_5_6 () Int)
(declare-fun cell_6_6 () Int)
(declare-fun cell_7_6 () Int)
(declare-fun cell_8_6 () Int)
(declare-fun cell_9_6 () Int)
(declare-fun cell_1_7 () Int)
(declare-fun cell_2_7 () Int)
(declare-fun cell_3_7 () Int)
(declare-fun cell_4_7 () Int)
(declare-fun cell_5_7 () Int)
(declare-fun cell_6_7 () Int)
(declare-fun cell_7_7 () Int)
(declare-fun cell_8_7 () Int)
(declare-fun cell_1_8 () Int)
(declare-fun cell_3_8 () Int)
(declare-fun cell_4_8 () Int)
(declare-fun cell_6_8 () Int)
(declare-fun cell_7_8 () Int)
(declare-fun cell_8_8 () Int)
(declare-fun cell_9_8 () Int)
(declare-fun cell_1_9 () Int)
(declare-fun cell_2_9 () Int)
(declare-fun cell_4_9 () Int)
(declare-fun cell_5_9 () Int)
(declare-fun cell_6_9 () Int)
(declare-fun cell_7_9 () Int)
(declare-fun cell_8_9 () Int)
(declare-fun cell_9_9 () Int)
(assert
 (= cell_1_3 1))
(assert
 (= cell_1_6 2))
(assert
 (= cell_2_6 1))
(assert
 (= cell_2_8 2))
(assert
 (= cell_3_3 2))
(assert
 (= cell_3_9 1))
(assert
 (= cell_4_4 2))
(assert
 (= cell_4_5 1))
(assert
 (= cell_5_1 2))
(assert
 (= cell_5_8 1))
(assert
 (= cell_6_1 1))
(assert
 (= cell_7_4 1))
(assert
 (= cell_8_2 1))
(assert
 (= cell_9_7 1))
(assert
 (let (($x2337 (= cell_1_1 9)))
 (let (($x2384 (= cell_1_1 8)))
 (let (($x597 (= cell_1_1 7)))
 (let (($x3235 (= cell_1_1 6)))
 (let (($x181 (= cell_1_1 5)))
 (let (($x1439 (= cell_1_1 4)))
 (let (($x2065 (= cell_1_1 3)))
 (let (($x2499 (= cell_1_1 2)))
 (let (($x3894 (= cell_1_1 1)))
 (or $x3894 $x2499 $x2065 $x1439 $x181 $x3235 $x597 $x2384 $x2337)))))))))))
(assert
 (let (($x1148 (= cell_2_1 9)))
 (let (($x2622 (= cell_2_1 8)))
 (let (($x2820 (= cell_2_1 7)))
 (let (($x1210 (= cell_2_1 6)))
 (let (($x948 (= cell_2_1 5)))
 (let (($x1379 (= cell_2_1 4)))
 (let (($x990 (= cell_2_1 3)))
 (let (($x1947 (= cell_2_1 2)))
 (let (($x529 (= cell_2_1 1)))
 (or $x529 $x1947 $x990 $x1379 $x948 $x1210 $x2820 $x2622 $x1148)))))))))))
(assert
 (let (($x1481 (= cell_3_1 9)))
 (let (($x467 (= cell_3_1 8)))
 (let (($x1140 (= cell_3_1 7)))
 (let (($x1331 (= cell_3_1 6)))
 (let (($x2115 (= cell_3_1 5)))
 (let (($x1559 (= cell_3_1 4)))
 (let (($x2970 (= cell_3_1 3)))
 (let (($x2113 (= cell_3_1 2)))
 (let (($x2444 (= cell_3_1 1)))
 (or $x2444 $x2113 $x2970 $x1559 $x2115 $x1331 $x1140 $x467 $x1481)))))))))))
(assert
 (let (($x105 (= cell_4_1 9)))
 (let (($x2553 (= cell_4_1 8)))
 (let (($x1009 (= cell_4_1 7)))
 (let (($x1978 (= cell_4_1 6)))
 (let (($x3726 (= cell_4_1 5)))
 (let (($x2662 (= cell_4_1 4)))
 (let (($x3367 (= cell_4_1 3)))
 (let (($x2228 (= cell_4_1 2)))
 (let (($x3203 (= cell_4_1 1)))
 (or $x3203 $x2228 $x3367 $x2662 $x3726 $x1978 $x1009 $x2553 $x105)))))))))))
(assert
 (let (($x260 (= cell_5_1 2)))
 (or (= cell_5_1 1) $x260 (= cell_5_1 3) (= cell_5_1 4) (= cell_5_1 5) (= cell_5_1 6) (= cell_5_1 7) (= cell_5_1 8) (= cell_5_1 9))))
(assert
 (let (($x147 (= cell_6_1 1)))
 (or $x147 (= cell_6_1 2) (= cell_6_1 3) (= cell_6_1 4) (= cell_6_1 5) (= cell_6_1 6) (= cell_6_1 7) (= cell_6_1 8) (= cell_6_1 9))))
(assert
 (let (($x3651 (= cell_7_1 9)))
 (let (($x3521 (= cell_7_1 8)))
 (let (($x2239 (= cell_7_1 7)))
 (let (($x257 (= cell_7_1 6)))
 (let (($x2850 (= cell_7_1 5)))
 (let (($x1802 (= cell_7_1 4)))
 (let (($x1224 (= cell_7_1 3)))
 (let (($x3456 (= cell_7_1 2)))
 (let (($x1486 (= cell_7_1 1)))
 (or $x1486 $x3456 $x1224 $x1802 $x2850 $x257 $x2239 $x3521 $x3651)))))))))))
(assert
 (let (($x3375 (= cell_8_1 9)))
 (let (($x226 (= cell_8_1 8)))
 (let (($x29 (= cell_8_1 7)))
 (let (($x1604 (= cell_8_1 6)))
 (let (($x593 (= cell_8_1 5)))
 (let (($x32 (= cell_8_1 4)))
 (let (($x385 (= cell_8_1 3)))
 (let (($x1375 (= cell_8_1 2)))
 (let (($x2309 (= cell_8_1 1)))
 (or $x2309 $x1375 $x385 $x32 $x593 $x1604 $x29 $x226 $x3375)))))))))))
(assert
 (let (($x2940 (= cell_9_1 9)))
 (let (($x2374 (= cell_9_1 8)))
 (let (($x526 (= cell_9_1 7)))
 (let (($x2991 (= cell_9_1 6)))
 (let (($x437 (= cell_9_1 5)))
 (let (($x2596 (= cell_9_1 4)))
 (let (($x1351 (= cell_9_1 3)))
 (let (($x939 (= cell_9_1 2)))
 (let (($x1936 (= cell_9_1 1)))
 (or $x1936 $x939 $x1351 $x2596 $x437 $x2991 $x526 $x2374 $x2940)))))))))))
(assert
 (let (($x514 (= cell_1_2 9)))
 (let (($x2556 (= cell_1_2 8)))
 (let (($x668 (= cell_1_2 7)))
 (let (($x3379 (= cell_1_2 6)))
 (let (($x2277 (= cell_1_2 5)))
 (let (($x1256 (= cell_1_2 4)))
 (let (($x318 (= cell_1_2 3)))
 (let (($x1990 (= cell_1_2 2)))
 (let (($x678 (= cell_1_2 1)))
 (or $x678 $x1990 $x318 $x1256 $x2277 $x3379 $x668 $x2556 $x514)))))))))))
(assert
 (let (($x3523 (= cell_2_2 9)))
 (let (($x2905 (= cell_2_2 8)))
 (let (($x3759 (= cell_2_2 7)))
 (let (($x1110 (= cell_2_2 6)))
 (let (($x667 (= cell_2_2 5)))
 (let (($x1013 (= cell_2_2 4)))
 (let (($x1819 (= cell_2_2 3)))
 (let (($x1759 (= cell_2_2 2)))
 (let (($x662 (= cell_2_2 1)))
 (or $x662 $x1759 $x1819 $x1013 $x667 $x1110 $x3759 $x2905 $x3523)))))))))))
(assert
 (let (($x3411 (= cell_3_2 9)))
 (let (($x1710 (= cell_3_2 8)))
 (let (($x2250 (= cell_3_2 7)))
 (let (($x969 (= cell_3_2 6)))
 (let (($x2306 (= cell_3_2 5)))
 (let (($x153 (= cell_3_2 4)))
 (let (($x297 (= cell_3_2 3)))
 (let (($x1391 (= cell_3_2 2)))
 (let (($x1594 (= cell_3_2 1)))
 (or $x1594 $x1391 $x297 $x153 $x2306 $x969 $x2250 $x1710 $x3411)))))))))))
(assert
 (let (($x2925 (= cell_4_2 9)))
 (let (($x470 (= cell_4_2 8)))
 (let (($x451 (= cell_4_2 7)))
 (let (($x1850 (= cell_4_2 6)))
 (let (($x2581 (= cell_4_2 5)))
 (let (($x1628 (= cell_4_2 4)))
 (let (($x539 (= cell_4_2 3)))
 (let (($x2446 (= cell_4_2 2)))
 (let (($x2807 (= cell_4_2 1)))
 (or $x2807 $x2446 $x539 $x1628 $x2581 $x1850 $x451 $x470 $x2925)))))))))))
(assert
 (let (($x2779 (= cell_5_2 9)))
 (let (($x1739 (= cell_5_2 8)))
 (let (($x3675 (= cell_5_2 7)))
 (let (($x1987 (= cell_5_2 6)))
 (let (($x3055 (= cell_5_2 5)))
 (let (($x803 (= cell_5_2 4)))
 (let (($x749 (= cell_5_2 3)))
 (let (($x2513 (= cell_5_2 2)))
 (let (($x1856 (= cell_5_2 1)))
 (or $x1856 $x2513 $x749 $x803 $x3055 $x1987 $x3675 $x1739 $x2779)))))))))))
(assert
 (let (($x2230 (= cell_6_2 9)))
 (let (($x89 (= cell_6_2 8)))
 (let (($x1872 (= cell_6_2 7)))
 (let (($x734 (= cell_6_2 6)))
 (let (($x3008 (= cell_6_2 5)))
 (let (($x3601 (= cell_6_2 4)))
 (let (($x158 (= cell_6_2 3)))
 (let (($x1281 (= cell_6_2 2)))
 (let (($x2247 (= cell_6_2 1)))
 (or $x2247 $x1281 $x158 $x3601 $x3008 $x734 $x1872 $x89 $x2230)))))))))))
(assert
 (let (($x2538 (= cell_7_2 9)))
 (let (($x3427 (= cell_7_2 8)))
 (let (($x3485 (= cell_7_2 7)))
 (let (($x2641 (= cell_7_2 6)))
 (let (($x239 (= cell_7_2 5)))
 (let (($x2368 (= cell_7_2 4)))
 (let (($x2126 (= cell_7_2 3)))
 (let (($x1301 (= cell_7_2 2)))
 (let (($x2697 (= cell_7_2 1)))
 (or $x2697 $x1301 $x2126 $x2368 $x239 $x2641 $x3485 $x3427 $x2538)))))))))))
(assert
 (let (($x2958 (= cell_8_2 1)))
 (or $x2958 (= cell_8_2 2) (= cell_8_2 3) (= cell_8_2 4) (= cell_8_2 5) (= cell_8_2 6) (= cell_8_2 7) (= cell_8_2 8) (= cell_8_2 9))))
(assert
 (let (($x1465 (= cell_9_2 9)))
 (let (($x1259 (= cell_9_2 8)))
 (let (($x2678 (= cell_9_2 7)))
 (let (($x2321 (= cell_9_2 6)))
 (let (($x932 (= cell_9_2 5)))
 (let (($x2280 (= cell_9_2 4)))
 (let (($x2315 (= cell_9_2 3)))
 (let (($x885 (= cell_9_2 2)))
 (let (($x1898 (= cell_9_2 1)))
 (or $x1898 $x885 $x2315 $x2280 $x932 $x2321 $x2678 $x1259 $x1465)))))))))))
(assert
 (let (($x574 (= cell_1_3 1)))
 (or $x574 (= cell_1_3 2) (= cell_1_3 3) (= cell_1_3 4) (= cell_1_3 5) (= cell_1_3 6) (= cell_1_3 7) (= cell_1_3 8) (= cell_1_3 9))))
(assert
 (let (($x321 (= cell_2_3 9)))
 (let (($x1908 (= cell_2_3 8)))
 (let (($x2350 (= cell_2_3 7)))
 (let (($x473 (= cell_2_3 6)))
 (let (($x1848 (= cell_2_3 5)))
 (let (($x390 (= cell_2_3 4)))
 (let (($x1258 (= cell_2_3 3)))
 (let (($x2332 (= cell_2_3 2)))
 (let (($x2689 (= cell_2_3 1)))
 (or $x2689 $x2332 $x1258 $x390 $x1848 $x473 $x2350 $x1908 $x321)))))))))))
(assert
 (let (($x1236 (= cell_3_3 2)))
 (or (= cell_3_3 1) $x1236 (= cell_3_3 3) (= cell_3_3 4) (= cell_3_3 5) (= cell_3_3 6) (= cell_3_3 7) (= cell_3_3 8) (= cell_3_3 9))))
(assert
 (let (($x1605 (= cell_4_3 9)))
 (let (($x484 (= cell_4_3 8)))
 (let (($x1766 (= cell_4_3 7)))
 (let (($x2151 (= cell_4_3 6)))
 (let (($x1694 (= cell_4_3 5)))
 (let (($x38 (= cell_4_3 4)))
 (let (($x1790 (= cell_4_3 3)))
 (let (($x1853 (= cell_4_3 2)))
 (let (($x3101 (= cell_4_3 1)))
 (or $x3101 $x1853 $x1790 $x38 $x1694 $x2151 $x1766 $x484 $x1605)))))))))))
(assert
 (let (($x1466 (= cell_5_3 9)))
 (let (($x41 (= cell_5_3 8)))
 (let (($x251 (= cell_5_3 7)))
 (let (($x3835 (= cell_5_3 6)))
 (let (($x1108 (= cell_5_3 5)))
 (let (($x2345 (= cell_5_3 4)))
 (let (($x618 (= cell_5_3 3)))
 (let (($x2020 (= cell_5_3 2)))
 (let (($x2296 (= cell_5_3 1)))
 (or $x2296 $x2020 $x618 $x2345 $x1108 $x3835 $x251 $x41 $x1466)))))))))))
(assert
 (let (($x1363 (= cell_6_3 2)))
 (let (($x2717 (= cell_6_3 1)))
 (or $x2717 $x1363 (= cell_6_3 3) (= cell_6_3 4) (= cell_6_3 5) (= cell_6_3 6) (= cell_6_3 7) (= cell_6_3 8) (= cell_6_3 9)))))
(assert
 (let (($x3176 (= cell_7_3 9)))
 (let (($x413 (= cell_7_3 8)))
 (let (($x792 (= cell_7_3 7)))
 (let (($x272 (= cell_7_3 6)))
 (let (($x2503 (= cell_7_3 5)))
 (let (($x2541 (= cell_7_3 4)))
 (let (($x3366 (= cell_7_3 3)))
 (let (($x1152 (= cell_7_3 2)))
 (let (($x2545 (= cell_7_3 1)))
 (or $x2545 $x1152 $x3366 $x2541 $x2503 $x272 $x792 $x413 $x3176)))))))))))
(assert
 (let (($x300 (= cell_8_3 2)))
 (let (($x1196 (= cell_8_3 1)))
 (or $x1196 $x300 (= cell_8_3 3) (= cell_8_3 4) (= cell_8_3 5) (= cell_8_3 6) (= cell_8_3 7) (= cell_8_3 8) (= cell_8_3 9)))))
(assert
 (let (($x620 (= cell_9_3 9)))
 (let (($x3604 (= cell_9_3 8)))
 (let (($x3332 (= cell_9_3 7)))
 (let (($x2327 (= cell_9_3 6)))
 (let (($x2140 (= cell_9_3 5)))
 (let (($x319 (= cell_9_3 4)))
 (let (($x2057 (= cell_9_3 3)))
 (let (($x1851 (= cell_9_3 2)))
 (let (($x1528 (= cell_9_3 1)))
 (or $x1528 $x1851 $x2057 $x319 $x2140 $x2327 $x3332 $x3604 $x620)))))))))))
(assert
 (let (($x3167 (= cell_1_4 9)))
 (let (($x2150 (= cell_1_4 8)))
 (let (($x764 (= cell_1_4 7)))
 (let (($x193 (= cell_1_4 6)))
 (let (($x545 (= cell_1_4 5)))
 (let (($x2537 (= cell_1_4 4)))
 (let (($x1163 (= cell_1_4 3)))
 (let (($x1550 (= cell_1_4 2)))
 (let (($x1727 (= cell_1_4 1)))
 (or $x1727 $x1550 $x1163 $x2537 $x545 $x193 $x764 $x2150 $x3167)))))))))))
(assert
 (let (($x2611 (= cell_2_4 9)))
 (let (($x2241 (= cell_2_4 8)))
 (let (($x2467 (= cell_2_4 7)))
 (let (($x1782 (= cell_2_4 6)))
 (let (($x1888 (= cell_2_4 5)))
 (let (($x1991 (= cell_2_4 4)))
 (let (($x3845 (= cell_2_4 3)))
 (let (($x755 (= cell_2_4 2)))
 (let (($x2555 (= cell_2_4 1)))
 (or $x2555 $x755 $x3845 $x1991 $x1888 $x1782 $x2467 $x2241 $x2611)))))))))))
(assert
 (let (($x1125 (= cell_3_4 9)))
 (let (($x856 (= cell_3_4 8)))
 (let (($x1834 (= cell_3_4 7)))
 (let (($x1800 (= cell_3_4 6)))
 (let (($x1169 (= cell_3_4 5)))
 (let (($x2644 (= cell_3_4 4)))
 (let (($x1184 (= cell_3_4 3)))
 (let (($x291 (= cell_3_4 2)))
 (let (($x1254 (= cell_3_4 1)))
 (or $x1254 $x291 $x1184 $x2644 $x1169 $x1800 $x1834 $x856 $x1125)))))))))))
(assert
 (let (($x2735 (= cell_4_4 2)))
 (or (= cell_4_4 1) $x2735 (= cell_4_4 3) (= cell_4_4 4) (= cell_4_4 5) (= cell_4_4 6) (= cell_4_4 7) (= cell_4_4 8) (= cell_4_4 9))))
(assert
 (let (($x61 (= cell_5_4 9)))
 (let (($x1949 (= cell_5_4 8)))
 (let (($x1266 (= cell_5_4 7)))
 (let (($x311 (= cell_5_4 6)))
 (let (($x2763 (= cell_5_4 5)))
 (let (($x2987 (= cell_5_4 4)))
 (let (($x1992 (= cell_5_4 3)))
 (let (($x2654 (= cell_5_4 2)))
 (let (($x3708 (= cell_5_4 1)))
 (or $x3708 $x2654 $x1992 $x2987 $x2763 $x311 $x1266 $x1949 $x61)))))))))))
(assert
 (let (($x1214 (= cell_6_4 9)))
 (let (($x2357 (= cell_6_4 8)))
 (let (($x364 (= cell_6_4 7)))
 (let (($x2253 (= cell_6_4 6)))
 (let (($x1865 (= cell_6_4 5)))
 (let (($x2431 (= cell_6_4 4)))
 (let (($x2846 (= cell_6_4 3)))
 (let (($x1999 (= cell_6_4 2)))
 (let (($x1300 (= cell_6_4 1)))
 (or $x1300 $x1999 $x2846 $x2431 $x1865 $x2253 $x364 $x2357 $x1214)))))))))))
(assert
 (let (($x2674 (= cell_7_4 1)))
 (or $x2674 (= cell_7_4 2) (= cell_7_4 3) (= cell_7_4 4) (= cell_7_4 5) (= cell_7_4 6) (= cell_7_4 7) (= cell_7_4 8) (= cell_7_4 9))))
(assert
 (let (($x2487 (= cell_8_4 2)))
 (let (($x2161 (= cell_8_4 1)))
 (or $x2161 $x2487 (= cell_8_4 3) (= cell_8_4 4) (= cell_8_4 5) (= cell_8_4 6) (= cell_8_4 7) (= cell_8_4 8) (= cell_8_4 9)))))
(assert
 (let (($x1664 (= cell_9_4 9)))
 (let (($x270 (= cell_9_4 8)))
 (let (($x2781 (= cell_9_4 7)))
 (let (($x2910 (= cell_9_4 6)))
 (let (($x2656 (= cell_9_4 5)))
 (let (($x2028 (= cell_9_4 4)))
 (let (($x1563 (= cell_9_4 3)))
 (let (($x1657 (= cell_9_4 2)))
 (let (($x25 (= cell_9_4 1)))
 (or $x25 $x1657 $x1563 $x2028 $x2656 $x2910 $x2781 $x270 $x1664)))))))))))
(assert
 (let (($x707 (= cell_1_5 9)))
 (let (($x2640 (= cell_1_5 8)))
 (let (($x1907 (= cell_1_5 7)))
 (let (($x2043 (= cell_1_5 6)))
 (let (($x344 (= cell_1_5 5)))
 (let (($x486 (= cell_1_5 4)))
 (let (($x1063 (= cell_1_5 3)))
 (let (($x2921 (= cell_1_5 2)))
 (let (($x2237 (= cell_1_5 1)))
 (or $x2237 $x2921 $x1063 $x486 $x344 $x2043 $x1907 $x2640 $x707)))))))))))
(assert
 (let (($x780 (= cell_2_5 9)))
 (let (($x494 (= cell_2_5 8)))
 (let (($x957 (= cell_2_5 7)))
 (let (($x2274 (= cell_2_5 6)))
 (let (($x1436 (= cell_2_5 5)))
 (let (($x3406 (= cell_2_5 4)))
 (let (($x1094 (= cell_2_5 3)))
 (let (($x2626 (= cell_2_5 2)))
 (let (($x657 (= cell_2_5 1)))
 (or $x657 $x2626 $x1094 $x3406 $x1436 $x2274 $x957 $x494 $x780)))))))))))
(assert
 (let (($x1264 (= cell_3_5 9)))
 (let (($x1022 (= cell_3_5 8)))
 (let (($x1347 (= cell_3_5 7)))
 (let (($x3325 (= cell_3_5 6)))
 (let (($x26 (= cell_3_5 5)))
 (let (($x2891 (= cell_3_5 4)))
 (let (($x2530 (= cell_3_5 3)))
 (let (($x228 (= cell_3_5 2)))
 (let (($x2054 (= cell_3_5 1)))
 (or $x2054 $x228 $x2530 $x2891 $x26 $x3325 $x1347 $x1022 $x1264)))))))))))
(assert
 (let (($x1416 (= cell_4_5 1)))
 (or $x1416 (= cell_4_5 2) (= cell_4_5 3) (= cell_4_5 4) (= cell_4_5 5) (= cell_4_5 6) (= cell_4_5 7) (= cell_4_5 8) (= cell_4_5 9))))
(assert
 (let (($x196 (= cell_5_5 9)))
 (let (($x3554 (= cell_5_5 8)))
 (let (($x170 (= cell_5_5 7)))
 (let (($x904 (= cell_5_5 6)))
 (let (($x2449 (= cell_5_5 5)))
 (let (($x685 (= cell_5_5 4)))
 (let (($x1946 (= cell_5_5 3)))
 (let (($x1313 (= cell_5_5 2)))
 (let (($x3390 (= cell_5_5 1)))
 (or $x3390 $x1313 $x1946 $x685 $x2449 $x904 $x170 $x3554 $x196)))))))))))
(assert
 (let (($x299 (= cell_6_5 9)))
 (let (($x1330 (= cell_6_5 8)))
 (let (($x3361 (= cell_6_5 7)))
 (let (($x315 (= cell_6_5 6)))
 (let (($x2000 (= cell_6_5 5)))
 (let (($x225 (= cell_6_5 4)))
 (let (($x804 (= cell_6_5 3)))
 (let (($x1623 (= cell_6_5 2)))
 (let (($x2466 (= cell_6_5 1)))
 (or $x2466 $x1623 $x804 $x225 $x2000 $x315 $x3361 $x1330 $x299)))))))))))
(assert
 (let (($x630 (= cell_7_5 1)))
 (or $x630 (= cell_7_5 2) (= cell_7_5 3) (= cell_7_5 4) (= cell_7_5 5) (= cell_7_5 6) (= cell_7_5 7) (= cell_7_5 8) (= cell_7_5 9))))
(assert
 (let (($x869 (= cell_8_5 1)))
 (or $x869 (= cell_8_5 2) (= cell_8_5 3) (= cell_8_5 4) (= cell_8_5 5) (= cell_8_5 6) (= cell_8_5 7) (= cell_8_5 8) (= cell_8_5 9))))
(assert
 (let (($x286 (= cell_9_5 9)))
 (let (($x475 (= cell_9_5 8)))
 (let (($x2189 (= cell_9_5 7)))
 (let (($x2184 (= cell_9_5 6)))
 (let (($x354 (= cell_9_5 5)))
 (let (($x1826 (= cell_9_5 4)))
 (let (($x1613 (= cell_9_5 3)))
 (let (($x3573 (= cell_9_5 2)))
 (let (($x1607 (= cell_9_5 1)))
 (or $x1607 $x3573 $x1613 $x1826 $x354 $x2184 $x2189 $x475 $x286)))))))))))
(assert
 (let (($x2008 (= cell_1_6 2)))
 (or (= cell_1_6 1) $x2008 (= cell_1_6 3) (= cell_1_6 4) (= cell_1_6 5) (= cell_1_6 6) (= cell_1_6 7) (= cell_1_6 8) (= cell_1_6 9))))
(assert
 (let (($x2170 (= cell_2_6 1)))
 (or $x2170 (= cell_2_6 2) (= cell_2_6 3) (= cell_2_6 4) (= cell_2_6 5) (= cell_2_6 6) (= cell_2_6 7) (= cell_2_6 8) (= cell_2_6 9))))
(assert
 (let (($x1611 (= cell_3_6 9)))
 (let (($x612 (= cell_3_6 8)))
 (let (($x1452 (= cell_3_6 7)))
 (let (($x541 (= cell_3_6 6)))
 (let (($x971 (= cell_3_6 5)))
 (let (($x1923 (= cell_3_6 4)))
 (let (($x1292 (= cell_3_6 3)))
 (let (($x2248 (= cell_3_6 2)))
 (let (($x2405 (= cell_3_6 1)))
 (or $x2405 $x2248 $x1292 $x1923 $x971 $x541 $x1452 $x612 $x1611)))))))))))
(assert
 (let (($x1158 (= cell_4_6 2)))
 (let (($x1032 (= cell_4_6 1)))
 (or $x1032 $x1158 (= cell_4_6 3) (= cell_4_6 4) (= cell_4_6 5) (= cell_4_6 6) (= cell_4_6 7) (= cell_4_6 8) (= cell_4_6 9)))))
(assert
 (let (($x774 (= cell_5_6 9)))
 (let (($x1930 (= cell_5_6 8)))
 (let (($x591 (= cell_5_6 7)))
 (let (($x2933 (= cell_5_6 6)))
 (let (($x1776 (= cell_5_6 5)))
 (let (($x2639 (= cell_5_6 4)))
 (let (($x1194 (= cell_5_6 3)))
 (let (($x1131 (= cell_5_6 2)))
 (let (($x673 (= cell_5_6 1)))
 (or $x673 $x1131 $x1194 $x2639 $x1776 $x2933 $x591 $x1930 $x774)))))))))))
(assert
 (let (($x2478 (= cell_6_6 2)))
 (let (($x450 (= cell_6_6 1)))
 (or $x450 $x2478 (= cell_6_6 3) (= cell_6_6 4) (= cell_6_6 5) (= cell_6_6 6) (= cell_6_6 7) (= cell_6_6 8) (= cell_6_6 9)))))
(assert
 (let (($x2419 (= cell_7_6 2)))
 (let (($x360 (= cell_7_6 1)))
 (or $x360 $x2419 (= cell_7_6 3) (= cell_7_6 4) (= cell_7_6 5) (= cell_7_6 6) (= cell_7_6 7) (= cell_7_6 8) (= cell_7_6 9)))))
(assert
 (let (($x963 (= cell_8_6 2)))
 (let (($x2699 (= cell_8_6 1)))
 (or $x2699 $x963 (= cell_8_6 3) (= cell_8_6 4) (= cell_8_6 5) (= cell_8_6 6) (= cell_8_6 7) (= cell_8_6 8) (= cell_8_6 9)))))
(assert
 (let (($x2139 (= cell_9_6 9)))
 (let (($x1243 (= cell_9_6 8)))
 (let (($x1127 (= cell_9_6 7)))
 (let (($x1042 (= cell_9_6 6)))
 (let (($x1591 (= cell_9_6 5)))
 (let (($x577 (= cell_9_6 4)))
 (let (($x1079 (= cell_9_6 3)))
 (let (($x2946 (= cell_9_6 2)))
 (let (($x656 (= cell_9_6 1)))
 (or $x656 $x2946 $x1079 $x577 $x1591 $x1042 $x1127 $x1243 $x2139)))))))))))
(assert
 (let (($x2843 (= cell_1_7 9)))
 (let (($x1364 (= cell_1_7 8)))
 (let (($x641 (= cell_1_7 7)))
 (let (($x219 (= cell_1_7 6)))
 (let (($x3038 (= cell_1_7 5)))
 (let (($x1516 (= cell_1_7 4)))
 (let (($x146 (= cell_1_7 3)))
 (let (($x3643 (= cell_1_7 2)))
 (let (($x3099 (= cell_1_7 1)))
 (or $x3099 $x3643 $x146 $x1516 $x3038 $x219 $x641 $x1364 $x2843)))))))))))
(assert
 (let (($x1341 (= cell_2_7 9)))
 (let (($x1969 (= cell_2_7 8)))
 (let (($x2919 (= cell_2_7 7)))
 (let (($x1943 (= cell_2_7 6)))
 (let (($x3781 (= cell_2_7 5)))
 (let (($x350 (= cell_2_7 4)))
 (let (($x1915 (= cell_2_7 3)))
 (let (($x2272 (= cell_2_7 2)))
 (let (($x818 (= cell_2_7 1)))
 (or $x818 $x2272 $x1915 $x350 $x3781 $x1943 $x2919 $x1969 $x1341)))))))))))
(assert
 (let (($x2597 (= cell_3_7 9)))
 (let (($x2220 (= cell_3_7 8)))
 (let (($x2670 (= cell_3_7 7)))
 (let (($x2620 (= cell_3_7 6)))
 (let (($x1769 (= cell_3_7 5)))
 (let (($x745 (= cell_3_7 4)))
 (let (($x2549 (= cell_3_7 3)))
 (let (($x2142 (= cell_3_7 2)))
 (let (($x3461 (= cell_3_7 1)))
 (or $x3461 $x2142 $x2549 $x745 $x1769 $x2620 $x2670 $x2220 $x2597)))))))))))
(assert
 (let (($x2560 (= cell_4_7 9)))
 (let (($x496 (= cell_4_7 8)))
 (let (($x2859 (= cell_4_7 7)))
 (let (($x973 (= cell_4_7 6)))
 (let (($x210 (= cell_4_7 5)))
 (let (($x859 (= cell_4_7 4)))
 (let (($x2450 (= cell_4_7 3)))
 (let (($x3103 (= cell_4_7 2)))
 (let (($x546 (= cell_4_7 1)))
 (or $x546 $x3103 $x2450 $x859 $x210 $x973 $x2859 $x496 $x2560)))))))))))
(assert
 (let (($x3412 (= cell_5_7 9)))
 (let (($x940 (= cell_5_7 8)))
 (let (($x137 (= cell_5_7 7)))
 (let (($x1448 (= cell_5_7 6)))
 (let (($x1547 (= cell_5_7 5)))
 (let (($x2516 (= cell_5_7 4)))
 (let (($x1178 (= cell_5_7 3)))
 (let (($x1785 (= cell_5_7 2)))
 (let (($x1133 (= cell_5_7 1)))
 (or $x1133 $x1785 $x1178 $x2516 $x1547 $x1448 $x137 $x940 $x3412)))))))))))
(assert
 (let (($x2400 (= cell_6_7 9)))
 (let (($x8003 (= cell_6_7 8)))
 (let (($x155 (= cell_6_7 7)))
 (let (($x2932 (= cell_6_7 6)))
 (let (($x1474 (= cell_6_7 5)))
 (let (($x2543 (= cell_6_7 4)))
 (let (($x675 (= cell_6_7 3)))
 (let (($x2894 (= cell_6_7 2)))
 (let (($x3086 (= cell_6_7 1)))
 (or $x3086 $x2894 $x675 $x2543 $x1474 $x2932 $x155 $x8003 $x2400)))))))))))
(assert
 (let (($x3652 (= cell_7_7 9)))
 (let (($x1384 (= cell_7_7 8)))
 (let (($x280 (= cell_7_7 7)))
 (let (($x2007 (= cell_7_7 6)))
 (let (($x2902 (= cell_7_7 5)))
 (let (($x3386 (= cell_7_7 4)))
 (let (($x916 (= cell_7_7 3)))
 (let (($x1984 (= cell_7_7 2)))
 (let (($x1307 (= cell_7_7 1)))
 (or $x1307 $x1984 $x916 $x3386 $x2902 $x2007 $x280 $x1384 $x3652)))))))))))
(assert
 (let (($x2114 (= cell_8_7 9)))
 (let (($x1340 (= cell_8_7 8)))
 (let (($x3534 (= cell_8_7 7)))
 (let (($x1706 (= cell_8_7 6)))
 (let (($x1183 (= cell_8_7 5)))
 (let (($x2398 (= cell_8_7 4)))
 (let (($x1606 (= cell_8_7 3)))
 (let (($x1560 (= cell_8_7 2)))
 (let (($x1539 (= cell_8_7 1)))
 (or $x1539 $x1560 $x1606 $x2398 $x1183 $x1706 $x3534 $x1340 $x2114)))))))))))
(assert
 (let (($x1685 (= cell_9_7 1)))
 (or $x1685 (= cell_9_7 2) (= cell_9_7 3) (= cell_9_7 4) (= cell_9_7 5) (= cell_9_7 6) (= cell_9_7 7) (= cell_9_7 8) (= cell_9_7 9))))
(assert
 (let (($x367 (= cell_1_8 9)))
 (let (($x2127 (= cell_1_8 8)))
 (let (($x2615 (= cell_1_8 7)))
 (let (($x1608 (= cell_1_8 6)))
 (let (($x224 (= cell_1_8 5)))
 (let (($x2607 (= cell_1_8 4)))
 (let (($x3725 (= cell_1_8 3)))
 (let (($x2004 (= cell_1_8 2)))
 (let (($x485 (= cell_1_8 1)))
 (or $x485 $x2004 $x3725 $x2607 $x224 $x1608 $x2615 $x2127 $x367)))))))))))
(assert
 (let (($x3022 (= cell_2_8 2)))
 (or (= cell_2_8 1) $x3022 (= cell_2_8 3) (= cell_2_8 4) (= cell_2_8 5) (= cell_2_8 6) (= cell_2_8 7) (= cell_2_8 8) (= cell_2_8 9))))
(assert
 (let (($x2255 (= cell_3_8 9)))
 (let (($x3031 (= cell_3_8 8)))
 (let (($x639 (= cell_3_8 7)))
 (let (($x2815 (= cell_3_8 6)))
 (let (($x2880 (= cell_3_8 5)))
 (let (($x897 (= cell_3_8 4)))
 (let (($x3528 (= cell_3_8 3)))
 (let (($x1142 (= cell_3_8 2)))
 (let (($x1373 (= cell_3_8 1)))
 (or $x1373 $x1142 $x3528 $x897 $x2880 $x2815 $x639 $x3031 $x2255)))))))))))
(assert
 (let (($x1573 (= cell_4_8 9)))
 (let (($x3168 (= cell_4_8 8)))
 (let (($x2579 (= cell_4_8 7)))
 (let (($x3124 (= cell_4_8 6)))
 (let (($x3184 (= cell_4_8 5)))
 (let (($x920 (= cell_4_8 4)))
 (let (($x2703 (= cell_4_8 3)))
 (let (($x2109 (= cell_4_8 2)))
 (let (($x1387 (= cell_4_8 1)))
 (or $x1387 $x2109 $x2703 $x920 $x3184 $x3124 $x2579 $x3168 $x1573)))))))))))
(assert
 (let (($x687 (= cell_5_8 1)))
 (or $x687 (= cell_5_8 2) (= cell_5_8 3) (= cell_5_8 4) (= cell_5_8 5) (= cell_5_8 6) (= cell_5_8 7) (= cell_5_8 8) (= cell_5_8 9))))
(assert
 (let (($x2865 (= cell_6_8 2)))
 (let (($x814 (= cell_6_8 1)))
 (or $x814 $x2865 (= cell_6_8 3) (= cell_6_8 4) (= cell_6_8 5) (= cell_6_8 6) (= cell_6_8 7) (= cell_6_8 8) (= cell_6_8 9)))))
(assert
 (let (($x695 (= cell_7_8 9)))
 (let (($x1239 (= cell_7_8 8)))
 (let (($x402 (= cell_7_8 7)))
 (let (($x50 (= cell_7_8 6)))
 (let (($x2974 (= cell_7_8 5)))
 (let (($x205 (= cell_7_8 4)))
 (let (($x1854 (= cell_7_8 3)))
 (let (($x2120 (= cell_7_8 2)))
 (let (($x1488 (= cell_7_8 1)))
 (or $x1488 $x2120 $x1854 $x205 $x2974 $x50 $x402 $x1239 $x695)))))))))))
(assert
 (let (($x723 (= cell_8_8 9)))
 (let (($x3093 (= cell_8_8 8)))
 (let (($x3757 (= cell_8_8 7)))
 (let (($x169 (= cell_8_8 6)))
 (let (($x931 (= cell_8_8 5)))
 (let (($x2242 (= cell_8_8 4)))
 (let (($x2914 (= cell_8_8 3)))
 (let (($x2655 (= cell_8_8 2)))
 (let (($x254 (= cell_8_8 1)))
 (or $x254 $x2655 $x2914 $x2242 $x931 $x169 $x3757 $x3093 $x723)))))))))))
(assert
 (let (($x209 (= cell_9_8 2)))
 (let (($x1719 (= cell_9_8 1)))
 (or $x1719 $x209 (= cell_9_8 3) (= cell_9_8 4) (= cell_9_8 5) (= cell_9_8 6) (= cell_9_8 7) (= cell_9_8 8) (= cell_9_8 9)))))
(assert
 (let (($x310 (= cell_1_9 9)))
 (let (($x1626 (= cell_1_9 8)))
 (let (($x698 (= cell_1_9 7)))
 (let (($x3197 (= cell_1_9 6)))
 (let (($x2588 (= cell_1_9 5)))
 (let (($x2823 (= cell_1_9 4)))
 (let (($x2129 (= cell_1_9 3)))
 (let (($x645 (= cell_1_9 2)))
 (let (($x3089 (= cell_1_9 1)))
 (or $x3089 $x645 $x2129 $x2823 $x2588 $x3197 $x698 $x1626 $x310)))))))))))
(assert
 (let (($x102 (= cell_2_9 9)))
 (let (($x2630 (= cell_2_9 8)))
 (let (($x1027 (= cell_2_9 7)))
 (let (($x1403 (= cell_2_9 6)))
 (let (($x1810 (= cell_2_9 5)))
 (let (($x1407 (= cell_2_9 4)))
 (let (($x1570 (= cell_2_9 3)))
 (let (($x2219 (= cell_2_9 2)))
 (let (($x2168 (= cell_2_9 1)))
 (or $x2168 $x2219 $x1570 $x1407 $x1810 $x1403 $x1027 $x2630 $x102)))))))))))
(assert
 (let (($x2341 (= cell_3_9 1)))
 (or $x2341 (= cell_3_9 2) (= cell_3_9 3) (= cell_3_9 4) (= cell_3_9 5) (= cell_3_9 6) (= cell_3_9 7) (= cell_3_9 8) (= cell_3_9 9))))
(assert
 (let (($x2457 (= cell_4_9 9)))
 (let (($x1901 (= cell_4_9 8)))
 (let (($x2121 (= cell_4_9 7)))
 (let (($x3242 (= cell_4_9 6)))
 (let (($x2491 (= cell_4_9 5)))
 (let (($x3706 (= cell_4_9 4)))
 (let (($x282 (= cell_4_9 3)))
 (let (($x2839 (= cell_4_9 2)))
 (let (($x977 (= cell_4_9 1)))
 (or $x977 $x2839 $x282 $x3706 $x2491 $x3242 $x2121 $x1901 $x2457)))))))))))
(assert
 (let (($x530 (= cell_5_9 2)))
 (let (($x1419 (= cell_5_9 1)))
 (or $x1419 $x530 (= cell_5_9 3) (= cell_5_9 4) (= cell_5_9 5) (= cell_5_9 6) (= cell_5_9 7) (= cell_5_9 8) (= cell_5_9 9)))))
(assert
 (let (($x2557 (= cell_6_9 2)))
 (let (($x2580 (= cell_6_9 1)))
 (or $x2580 $x2557 (= cell_6_9 3) (= cell_6_9 4) (= cell_6_9 5) (= cell_6_9 6) (= cell_6_9 7) (= cell_6_9 8) (= cell_6_9 9)))))
(assert
 (let (($x2546 (= cell_7_9 9)))
 (let (($x1023 (= cell_7_9 8)))
 (let (($x4222 (= cell_7_9 7)))
 (let (($x3499 (= cell_7_9 6)))
 (let (($x1678 (= cell_7_9 5)))
 (let (($x1508 (= cell_7_9 4)))
 (let (($x2045 (= cell_7_9 3)))
 (let (($x1669 (= cell_7_9 2)))
 (let (($x1531 (= cell_7_9 1)))
 (or $x1531 $x1669 $x2045 $x1508 $x1678 $x3499 $x4222 $x1023 $x2546)))))))))))
(assert
 (let (($x1251 (= cell_8_9 9)))
 (let (($x339 (= cell_8_9 8)))
 (let (($x2132 (= cell_8_9 7)))
 (let (($x522 (= cell_8_9 6)))
 (let (($x674 (= cell_8_9 5)))
 (let (($x568 (= cell_8_9 4)))
 (let (($x3096 (= cell_8_9 3)))
 (let (($x1823 (= cell_8_9 2)))
 (let (($x1167 (= cell_8_9 1)))
 (or $x1167 $x1823 $x3096 $x568 $x674 $x522 $x2132 $x339 $x1251)))))))))))
(assert
 (let (($x1070 (= cell_9_9 1)))
 (or $x1070 (= cell_9_9 2) (= cell_9_9 3) (= cell_9_9 4) (= cell_9_9 5) (= cell_9_9 6) (= cell_9_9 7) (= cell_9_9 8) (= cell_9_9 9))))
(assert
 (and (distinct cell_1_1 cell_1_2 cell_1_3 cell_1_4 cell_1_5 cell_1_6 cell_1_7 cell_1_8 cell_1_9) true))
(assert
 (and (distinct cell_2_1 cell_2_2 cell_2_3 cell_2_4 cell_2_5 cell_2_6 cell_2_7 cell_2_8 cell_2_9) true))
(assert
 (and (distinct cell_3_1 cell_3_2 cell_3_3 cell_3_4 cell_3_5 cell_3_6 cell_3_7 cell_3_8 cell_3_9) true))
(assert
 (and (distinct cell_4_1 cell_4_2 cell_4_3 cell_4_4 cell_4_5 cell_4_6 cell_4_7 cell_4_8 cell_4_9) true))
(assert
 (and (distinct cell_5_1 cell_5_2 cell_5_3 cell_5_4 cell_5_5 cell_5_6 cell_5_7 cell_5_8 cell_5_9) true))
(assert
 (and (distinct cell_6_1 cell_6_2 cell_6_3 cell_6_4 cell_6_5 cell_6_6 cell_6_7 cell_6_8 cell_6_9) true))
(assert
 (and (distinct cell_7_1 cell_7_2 cell_7_3 cell_7_4 cell_7_5 cell_7_6 cell_7_7 cell_7_8 cell_7_9) true))
(assert
 (and (distinct cell_8_1 cell_8_2 cell_8_3 cell_8_4 cell_8_5 cell_8_6 cell_8_7 cell_8_8 cell_8_9) true))
(assert
 (and (distinct cell_9_1 cell_9_2 cell_9_3 cell_9_4 cell_9_5 cell_9_6 cell_9_7 cell_9_8 cell_9_9) true))
(assert
 (and (distinct cell_1_1 cell_2_1 cell_3_1 cell_4_1 cell_5_1 cell_6_1 cell_7_1 cell_8_1 cell_9_1) true))
(assert
 (and (distinct cell_1_2 cell_2_2 cell_3_2 cell_4_2 cell_5_2 cell_6_2 cell_7_2 cell_8_2 cell_9_2) true))
(assert
 (and (distinct cell_1_3 cell_2_3 cell_3_3 cell_4_3 cell_5_3 cell_6_3 cell_7_3 cell_8_3 cell_9_3) true))
(assert
 (and (distinct cell_1_4 cell_2_4 cell_3_4 cell_4_4 cell_5_4 cell_6_4 cell_7_4 cell_8_4 cell_9_4) true))
(assert
 (and (distinct cell_1_5 cell_2_5 cell_3_5 cell_4_5 cell_5_5 cell_6_5 cell_7_5 cell_8_5 cell_9_5) true))
(assert
 (and (distinct cell_1_6 cell_2_6 cell_3_6 cell_4_6 cell_5_6 cell_6_6 cell_7_6 cell_8_6 cell_9_6) true))
(assert
 (and (distinct cell_1_7 cell_2_7 cell_3_7 cell_4_7 cell_5_7 cell_6_7 cell_7_7 cell_8_7 cell_9_7) true))
(assert
 (and (distinct cell_1_8 cell_2_8 cell_3_8 cell_4_8 cell_5_8 cell_6_8 cell_7_8 cell_8_8 cell_9_8) true))
(assert
 (and (distinct cell_1_9 cell_2_9 cell_3_9 cell_4_9 cell_5_9 cell_6_9 cell_7_9 cell_8_9 cell_9_9) true))
(assert
 (and (distinct cell_1_1 cell_1_2 cell_1_3 cell_2_1 cell_2_2 cell_2_3 cell_3_1 cell_3_2 cell_3_3) true))
(assert
 (and (distinct cell_1_4 cell_1_5 cell_1_6 cell_2_4 cell_2_5 cell_2_6 cell_3_4 cell_3_5 cell_3_6) true))
(assert
 (and (distinct cell_1_7 cell_1_8 cell_1_9 cell_2_7 cell_2_8 cell_2_9 cell_3_7 cell_3_8 cell_3_9) true))
(assert
 (and (distinct cell_4_1 cell_4_2 cell_4_3 cell_5_1 cell_5_2 cell_5_3 cell_6_1 cell_6_2 cell_6_3) true))
(assert
 (and (distinct cell_4_4 cell_4_5 cell_4_6 cell_5_4 cell_5_5 cell_5_6 cell_6_4 cell_6_5 cell_6_6) true))
(assert
 (and (distinct cell_4_7 cell_4_8 cell_4_9 cell_5_7 cell_5_8 cell_5_9 cell_6_7 cell_6_8 cell_6_9) true))
(assert
 (and (distinct cell_7_1 cell_7_2 cell_7_3 cell_8_1 cell_8_2 cell_8_3 cell_9_1 cell_9_2 cell_9_3) true))
(assert
 (and (distinct cell_7_4 cell_7_5 cell_7_6 cell_8_4 cell_8_5 cell_8_6 cell_9_4 cell_9_5 cell_9_6) true))
(assert
 (and (distinct cell_7_7 cell_7_8 cell_7_9 cell_8_7 cell_8_8 cell_8_9 cell_9_7 cell_9_8 cell_9_9) true))
(assert
 (let (($x1572 (and (distinct cell_5_9 cell_6_8 cell_7_7 cell_8_6) true)))
 (let (($x2922 (and (distinct cell_2_9 cell_3_8 cell_4_7 cell_5_6 cell_6_5 cell_7_4 cell_8_3 cell_9_2) true)))
 (let (($x391 (and (distinct cell_1_8 cell_2_7 cell_3_6 cell_4_5 cell_5_4 cell_6_3 cell_7_2 cell_8_1) true)))
 (let (($x1979 (and (distinct cell_1_5 cell_2_4 cell_3_3 cell_4_2) true)))
 (let (($x3804 (and (distinct cell_5_1 cell_6_2 cell_7_3 cell_8_4) true)))
 (let (($x3079 (and (distinct cell_2_1 cell_3_2 cell_4_3 cell_5_4 cell_6_5 cell_7_6 cell_8_7 cell_9_8) true)))
 (let (($x2599 (and (distinct cell_1_2 cell_2_3 cell_3_4 cell_4_5 cell_5_6 cell_6_7 cell_7_8 cell_8_9) true)))
 (let (($x2899 (and (distinct cell_1_5 cell_2_6 cell_3_7 cell_4_8) true)))
 (and $x2899 $x2599 $x3079 $x3804 $x1979 $x391 $x2922 $x1572))))))))))
(assert
 (= cell_6_9 2))
(check-sat)
